NAME : amz0508.99194_99194.tour
COMMENT : Cost = 99194_99194
COMMENT : Found by LKH-AMZ [Keld Helsgaun] Sun May 11 14:33:23 2025
COMMENT : TW viol.: 0 #: 0
TYPE : TOUR
DIMENSION : 121
TOUR_SECTION
56
10
88
92
44
20
90
31
114
62
41
18
70
76
71
69
14
101
94
54
27
75
30
102
115
57
93
117
19
47
85
77
23
9
95
35
80
91
24
97
39
8
108
49
46
36
73
84
106
78
107
105
6
7
3
111
104
37
13
110
59
32
45
22
11
74
63
72
25
96
34
42
103
12
86
68
66
118
113
38
52
87
64
33
60
43
21
50
81
5
120
16
116
100
61
4
51
67
2
89
65
17
82
1
79
40
58
99
48
109
28
53
112
15
121
98
83
119
29
26
55
-1
EOF
